NAME: test1956
TYPE: TSP
DIMENSION: 11
EDGE_WEIGHT_TYPE: EUC_2D
NODE_COORD_SECTION
1 51.32647273957349 62.459559579884406
2 72.45952896185909 17.986678262842382
3 66.57940776517786 41.449305088150304
4 78.02609043002033 76.03348452611833
5 16.90884723093964 31.51192232926562
6 88.08642985278725 40.13868416392329
7 67.24028148783692 65.21924167799449
8 50.258882256938776 57.7887977494265
9 60.17468185442709 14.802451368673886
10 44.675142285388816 61.231131094553405
11 32.768577298275225 53.4424307923861
EOF
